RLT03
Position Depot: Random
Horizon for Depot: Large
Position of customers: Random
Distribution of the demand: Small
Width of time windows: Tight
Distribution of the service: Small

VEHICLE 
NUMBER 	 CAPACITY 
 12 	 	 31 
 
CUSTOMER
CUST NO. 	 XCOORD.  	 YCOORD. 	 DEMAND 	 READY TIME 	 DUE DATE 	 SERVICE TIME 
 0 	 	 964 	 	 960 	 	 0 	 	 0 	 	 3354 	 	 0 
  1 	 	 198 	 	 162 	 	 6 	 	 2157 	 	 2248 	 	 59 
  2 	 	 122 	 	 452 	 	 9 	 	 2096 	 	 2179 	 	 77 
  3 	 	 137 	 	 870 	 	 7 	 	 2419 	 	 2550 	 	 88 
  4 	 	 140 	 	 21 	 	 7 	 	 3144 	 	 3238 	 	 64 
  5 	 	 240 	 	 709 	 	 8 	 	 2338 	 	 2513 	 	 52 
  6 	 	 944 	 	 667 	 	 5 	 	 454 	 	 640 	 	 80 
  7 	 	 578 	 	 146 	 	 6 	 	 1433 	 	 1518 	 	 67 
  8 	 	 915 	 	 758 	 	 7 	 	 191 	 	 339 	 	 80 
  9 	 	 30 	 	 541 	 	 8 	 	 1015 	 	 1126 	 	 63 
  10 	 	 705 	 	 930 	 	 5 	 	 2895 	 	 3022 	 	 52 
  11 	 	 273 	 	 839 	 	 9 	 	 741 	 	 809 	 	 56 
  12 	 	 832 	 	 822 	 	 5 	 	 1572 	 	 1706 	 	 56 
  13 	 	 456 	 	 735 	 	 9 	 	 2054 	 	 2227 	 	 92 
  14 	 	 287 	 	 146 	 	 8 	 	 1451 	 	 1590 	 	 98 
  15 	 	 392 	 	 421 	 	 8 	 	 1412 	 	 1602 	 	 63 
  16 	 	 200 	 	 66 	 	 6 	 	 1182 	 	 1293 	 	 51 
  17 	 	 246 	 	 685 	 	 8 	 	 1789 	 	 1951 	 	 86 
  18 	 	 97 	 	 55 	 	 6 	 	 3170 	 	 3354 	 	 50 
  19 	 	 45 	 	 440 	 	 7 	 	 1659 	 	 1742 	 	 65 
  20 	 	 711 	 	 790 	 	 10 	 	 1455 	 	 1611 	 	 99 
  21 	 	 350 	 	 599 	 	 10 	 	 604 	 	 783 	 	 79 
  22 	 	 132 	 	 705 	 	 9 	 	 1391 	 	 1590 	 	 53 
  23 	 	 357 	 	 120 	 	 6 	 	 2562 	 	 2643 	 	 77 
  24 	 	 973 	 	 152 	 	 5 	 	 1454 	 	 1537 	 	 59 
  25 	 	 295 	 	 25 	 	 8 	 	 2584 	 	 2640 	 	 80 
  26 	 	 68 	 	 768 	 	 9 	 	 1728 	 	 1801 	 	 80 
  27 	 	 557 	 	 617 	 	 9 	 	 503 	 	 585 	 	 84 
  28 	 	 868 	 	 690 	 	 10 	 	 1517 	 	 1706 	 	 76 
  29 	 	 247 	 	 933 	 	 9 	 	 1469 	 	 1641 	 	 96 
  30 	 	 324 	 	 448 	 	 5 	 	 798 	 	 901 	 	 87 
  31 	 	 625 	 	 886 	 	 10 	 	 1474 	 	 1550 	 	 56 
  32 	 	 363 	 	 108 	 	 6 	 	 1074 	 	 1146 	 	 50 
  33 	 	 524 	 	 442 	 	 6 	 	 619 	 	 747 	 	 81 
  34 	 	 626 	 	 63 	 	 9 	 	 1660 	 	 1853 	 	 69 
  35 	 	 401 	 	 643 	 	 5 	 	 2716 	 	 2773 	 	 67 
  36 	 	 930 	 	 635 	 	 8 	 	 1740 	 	 1846 	 	 67 
  37 	 	 931 	 	 890 	 	 7 	 	 3086 	 	 3258 	 	 78 
  38 	 	 546 	 	 56 	 	 7 	 	 2057 	 	 2151 	 	 97 
  39 	 	 723 	 	 448 	 	 8 	 	 1111 	 	 1310 	 	 87 
  40 	 	 186 	 	 328 	 	 9 	 	 2621 	 	 2772 	 	 98 
  41 	 	 990 	 	 682 	 	 10 	 	 1597 	 	 1790 	 	 88 
  42 	 	 407 	 	 488 	 	 10 	 	 839 	 	 967 	 	 51 
  43 	 	 64 	 	 151 	 	 8 	 	 1189 	 	 1331 	 	 66 
  44 	 	 865 	 	 858 	 	 7 	 	 3140 	 	 3328 	 	 69 
  45 	 	 141 	 	 109 	 	 9 	 	 1136 	 	 1302 	 	 52 
  46 	 	 456 	 	 480 	 	 10 	 	 2266 	 	 2399 	 	 84 
  47 	 	 380 	 	 128 	 	 10 	 	 931 	 	 1118 	 	 62 
  48 	 	 788 	 	 275 	 	 9 	 	 3286 	 	 3352 	 	 100 
  49 	 	 473 	 	 290 	 	 5 	 	 2589 	 	 2707 	 	 96 
  50 	 	 984 	 	 513 	 	 10 	 	 298 	 	 492 	 	 75 
 